
Gurobi 11.0.1 (win64) logging started Tue May 14 18:19:01 2024

Set parameter LogFile to value "output/solver_log3.txt"
Gurobi Optimizer version 11.0.1 build v11.0.1rc0 (win64 - Windows 11.0 (22631.2))

CPU model: 11th Gen Intel(R) Core(TM) i7-1165G7 @ 2.80GHz, instruction set [SSE2|AVX|AVX2|AVX512]
Thread count: 4 physical cores, 8 logical processors, using up to 8 threads

Optimize a model with 1132 rows, 275 columns and 21620 nonzeros
Model fingerprint: 0x8601fd9e
Variable types: 88 continuous, 187 integer (187 binary)
Coefficient statistics:
  Matrix range     [4e-01, 1e+05]
  Objective range  [1e+00, 1e+02]
  Bounds range     [1e+00, 1e+00]
  RHS range        [1e-02, 1e+05]

User MIP start produced solution with objective 38085.5 (0.00s)
User MIP start produced solution with objective 39179.6 (0.01s)
User MIP start produced solution with objective 39179.6 (0.01s)
Loaded user MIP start with objective 39179.6

Presolve removed 102 rows and 105 columns
Presolve time: 0.02s
Presolved: 1030 rows, 170 columns, 20731 nonzeros
Variable types: 82 continuous, 88 integer (87 binary)

Root relaxation: objective 4.157793e+04, 241 iterations, 0.02 seconds (0.03 work units)

    Nodes    |    Current Node    |     Objective Bounds      |     Work
 Expl Unexpl |  Obj  Depth IntInf | Incumbent    BestBd   Gap | It/Node Time

     0     0 41577.9268    0    6 39179.5646 41577.9268  6.12%     -    0s
     0     0 40426.6620    0   11 39179.5646 40426.6620  3.18%     -    0s
     0     0 39184.0513    0    7 39179.5646 39184.0513  0.01%     -    0s
     0     0 39183.8609    0    6 39179.5646 39183.8609  0.01%     -    0s
     0     0 39183.8609    0    6 39179.5646 39183.8609  0.01%     -    0s
     0     0 39183.8609    0    6 39179.5646 39183.8609  0.01%     -    0s
     0     2 39183.8609    0    6 39179.5646 39183.8609  0.01%     -    0s

Explored 177 nodes (3689 simplex iterations) in 0.62 seconds (1.02 work units)
Thread count was 8 (of 8 available processors)

Solution count 3: 39179.6 39179.6 38085.5 

Optimal solution found (tolerance 1.00e-04)
Best objective 3.917956460311e+04, best bound 3.918344905348e+04, gap 0.0099%
